inputs/factoring255-8bit.dimacs
p cnf 588 1404
c Factors encoded in variables 1-8 and 9-16
c Target number: 255
-17 0
18 0
-83 20 27 0
-83 -20 -27 0
83 20 -27 0
83 -20 27 0
-20 -27 84 0
20 27 -84 0
20 -84 0
27 -84 0
-21 -28 86 0
-21 -84 86 0
-28 -84 86 0
21 28 -86 0
21 84 -86 0
28 84 -86 0
-22 -29 88 0
-22 -86 88 0
-29 -86 88 0
22 29 -88 0
22 86 -88 0
29 86 -88 0
-23 -30 90 0
-23 -88 90 0
-30 -88 90 0
23 30 -90 0
23 88 -90 0
30 88 -90 0
-24 -31 92 0
-24 -90 92 0
-31 -90 92 0
24 31 -92 0
24 90 -92 0
31 90 -92 0
-25 -32 94 0
-25 -92 94 0
-32 -92 94 0
25 32 -94 0
25 92 -94 0
32 92 -94 0
-26 -33 96 0
-26 -94 96 0
-33 -94 96 0
26 33 -96 0
26 94 -96 0
33 94 -96 0
-97 34 96 0
-97 -34 -96 0
97 34 -96 0
97 -34 96 0
-34 -96 98 0
34 96 -98 0
34 -98 0
96 -98 0
-99 36 43 0
-99 -36 -43 0
99 36 -43 0
99 -36 43 0
-36 -43 100 0
36 43 -100 0
36 -100 0
43 -100 0
-37 -44 102 0
-37 -100 102 0
-44 -100 102 0
37 44 -102 0
37 100 -102 0
44 100 -102 0
-38 -45 104 0
-38 -102 104 0
-45 -102 104 0
38 45 -104 0
38 102 -104 0
45 102 -104 0
-39 -46 106 0
-39 -104 106 0
-46 -104 106 0
39 46 -106 0
39 104 -106 0
46 104 -106 0
-40 -47 108 0
-40 -106 108 0
-47 -106 108 0
40 47 -108 0
40 106 -108 0
47 106 -108 0
-41 -48 110 0
-41 -108 110 0
-48 -108 110 0
41 48 -110 0
41 108 -110 0
48 108 -110 0
-42 -49 112 0
-42 -110 112 0
-49 -110 112 0
42 49 -112 0
42 110 -112 0
49 110 -112 0
-113 50 112 0
-113 -50 -112 0
113 50 -112 0
113 -50 112 0
-50 -112 114 0
50 112 -114 0
50 -114 0
112 -114 0
-115 52 59 0
-115 -52 -59 0
115 52 -59 0
115 -52 59 0
-52 -59 116 0
52 59 -116 0
52 -116 0
59 -116 0
-53 -60 118 0
-53 -116 118 0
-60 -116 118 0
53 60 -118 0
53 116 -118 0
60 116 -118 0
-54 -61 120 0
-54 -118 120 0
-61 -118 120 0
54 61 -120 0
54 118 -120 0
61 118 -120 0
-55 -62 122 0
-55 -120 122 0
-62 -120 122 0
55 62 -122 0
55 120 -122 0
62 120 -122 0
-56 -63 124 0
-56 -122 124 0
-63 -122 124 0
56 63 -124 0
56 122 -124 0
63 122 -124 0
-57 -64 126 0
-57 -124 126 0
-64 -124 126 0
57 64 -126 0
57 124 -126 0
64 124 -126 0
-58 -65 128 0
-58 -126 128 0
-65 -126 128 0
58 65 -128 0
58 126 -128 0
65 126 -128 0
-129 66 128 0
-129 -66 -128 0
129 66 -128 0
129 -66 128 0
-66 -128 130 0
66 128 -130 0
66 -130 0
128 -130 0
-131 68 75 0
-131 -68 -75 0
131 68 -75 0
131 -68 75 0
-68 -75 132 0
68 75 -132 0
68 -132 0
75 -132 0
-69 -76 134 0
-69 -132 134 0
-76 -132 134 0
69 76 -134 0
69 132 -134 0
76 132 -134 0
-70 -77 136 0
-70 -134 136 0
-77 -134 136 0
70 77 -136 0
70 134 -136 0
77 134 -136 0
-71 -78 138 0
-71 -136 138 0
-78 -136 138 0
71 78 -138 0
71 136 -138 0
78 136 -138 0
-72 -79 140 0
-72 -138 140 0
-79 -138 140 0
72 79 -140 0
72 138 -140 0
79 138 -140 0
-73 -80 142 0
-73 -140 142 0
-80 -140 142 0
73 80 -142 0
73 140 -142 0
80 140 -142 0
-74 -81 144 0
-74 -142 144 0
-81 -142 144 0
74 81 -144 0
74 142 -144 0
81 142 -144 0
-145 82 144 0
-145 -82 -144 0
145 82 -144 0
145 -82 144 0
-82 -144 146 0
82 144 -146 0
82 -146 0
144 -146 0
-147 85 35 0
-147 -85 -35 0
147 85 -35 0
147 -85 35 0
-85 -35 148 0
85 35 -148 0
85 -148 0
35 -148 0
-87 -99 150 0
-87 -148 150 0
-99 -148 150 0
87 99 -150 0
87 148 -150 0
99 148 -150 0
-89 -101 152 0
-89 -150 152 0
-101 -150 152 0
89 101 -152 0
89 150 -152 0
101 150 -152 0
-91 -103 154 0
-91 -152 154 0
-103 -152 154 0
91 103 -154 0
91 152 -154 0
103 152 -154 0
-93 -105 156 0
-93 -154 156 0
-105 -154 156 0
93 105 -156 0
93 154 -156 0
105 154 -156 0
-95 -107 158 0
-95 -156 158 0
-107 -156 158 0
95 107 -158 0
95 156 -158 0
107 156 -158 0
-97 -109 160 0
-97 -158 160 0
-109 -158 160 0
97 109 -160 0
97 158 -160 0
109 158 -160 0
-98 -111 162 0
-98 -160 162 0
-111 -160 162 0
98 111 -162 0
98 160 -162 0
111 160 -162 0
-163 113 162 0
-163 -113 -162 0
163 113 -162 0
163 -113 162 0
-113 -162 164 0
113 162 -164 0
113 -164 0
162 -164 0
-165 114 164 0
-165 -114 -164 0
165 114 -164 0
165 -114 164 0
-114 -164 166 0
114 164 -166 0
114 -166 0
164 -166 0
-167 117 67 0
-167 -117 -67 0
167 117 -67 0
167 -117 67 0
-117 -67 168 0
117 67 -168 0
117 -168 0
67 -168 0
-119 -131 170 0
-119 -168 170 0
-131 -168 170 0
119 131 -170 0
119 168 -170 0
131 168 -170 0
-121 -133 172 0
-121 -170 172 0
-133 -170 172 0
121 133 -172 0
121 170 -172 0
133 170 -172 0
-123 -135 174 0
-123 -172 174 0
-135 -172 174 0
123 135 -174 0
123 172 -174 0
135 172 -174 0
-125 -137 176 0
-125 -174 176 0
-137 -174 176 0
125 137 -176 0
125 174 -176 0
137 174 -176 0
-127 -139 178 0
-127 -176 178 0
-139 -176 178 0
127 139 -178 0
127 176 -178 0
139 176 -178 0
-129 -141 180 0
-129 -178 180 0
-141 -178 180 0
129 141 -180 0
129 178 -180 0
141 178 -180 0
-130 -143 182 0
-130 -180 182 0
-143 -180 182 0
130 143 -182 0
130 180 -182 0
143 180 -182 0
-183 145 182 0
-183 -145 -182 0
183 145 -182 0
183 -145 182 0
-145 -182 184 0
145 182 -184 0
145 -184 0
182 -184 0
-185 146 184 0
-185 -146 -184 0
185 146 -184 0
185 -146 184 0
-146 -184 186 0
146 184 -186 0
146 -186 0
184 -186 0
-187 151 51 0
-187 -151 -51 0
187 151 -51 0
187 -151 51 0
-151 -51 188 0
151 51 -188 0
151 -188 0
51 -188 0
-153 -115 190 0
-153 -188 190 0
-115 -188 190 0
153 115 -190 0
153 188 -190 0
115 188 -190 0
-155 -167 192 0
-155 -190 192 0
-167 -190 192 0
155 167 -192 0
155 190 -192 0
167 190 -192 0
-157 -169 194 0
-157 -192 194 0
-169 -192 194 0
157 169 -194 0
157 192 -194 0
169 192 -194 0
-159 -171 196 0
-159 -194 196 0
-171 -194 196 0
159 171 -196 0
159 194 -196 0
171 194 -196 0
-161 -173 198 0
-161 -196 198 0
-173 -196 198 0
161 173 -198 0
161 196 -198 0
173 196 -198 0
-163 -175 200 0
-163 -198 200 0
-175 -198 200 0
163 175 -200 0
163 198 -200 0
175 198 -200 0
-165 -177 202 0
-165 -200 202 0
-177 -200 202 0
165 177 -202 0
165 200 -202 0
177 200 -202 0
-166 -179 204 0
-166 -202 204 0
-179 -202 204 0
166 179 -204 0
166 202 -204 0
179 202 -204 0
-205 181 204 0
-205 -181 -204 0
205 181 -204 0
205 -181 204 0
-181 -204 206 0
181 204 -206 0
181 -206 0
204 -206 0
-207 183 206 0
-207 -183 -206 0
207 183 -206 0
207 -183 206 0
-183 -206 208 0
183 206 -208 0
183 -208 0
206 -208 0
-209 185 208 0
-209 -185 -208 0
209 185 -208 0
209 -185 208 0
-185 -208 210 0
185 208 -210 0
185 -210 0
208 -210 0
-211 186 210 0
-211 -186 -210 0
211 186 -210 0
211 -186 210 0
-186 -210 212 0
186 210 -212 0
186 -212 0
210 -212 0
19 -1 -9 0
-19 1 0
-19 9 0
20 -2 -9 0
-20 2 0
-20 9 0
21 -3 -9 0
-21 3 0
-21 9 0
22 -4 -9 0
-22 4 0
-22 9 0
23 -5 -9 0
-23 5 0
-23 9 0
24 -6 -9 0
-24 6 0
-24 9 0
25 -7 -9 0
-25 7 0
-25 9 0
26 -8 -9 0
-26 8 0
-26 9 0
27 -1 -10 0
-27 1 0
-27 10 0
28 -2 -10 0
-28 2 0
-28 10 0
29 -3 -10 0
-29 3 0
-29 10 0
30 -4 -10 0
-30 4 0
-30 10 0
31 -5 -10 0
-31 5 0
-31 10 0
32 -6 -10 0
-32 6 0
-32 10 0
33 -7 -10 0
-33 7 0
-33 10 0
34 -8 -10 0
-34 8 0
-34 10 0
35 -1 -11 0
-35 1 0
-35 11 0
36 -2 -11 0
-36 2 0
-36 11 0
37 -3 -11 0
-37 3 0
-37 11 0
38 -4 -11 0
-38 4 0
-38 11 0
39 -5 -11 0
-39 5 0
-39 11 0
40 -6 -11 0
-40 6 0
-40 11 0
41 -7 -11 0
-41 7 0
-41 11 0
42 -8 -11 0
-42 8 0
-42 11 0
43 -1 -12 0
-43 1 0
-43 12 0
44 -2 -12 0
-44 2 0
-44 12 0
45 -3 -12 0
-45 3 0
-45 12 0
46 -4 -12 0
-46 4 0
-46 12 0
47 -5 -12 0
-47 5 0
-47 12 0
48 -6 -12 0
-48 6 0
-48 12 0
49 -7 -12 0
-49 7 0
-49 12 0
50 -8 -12 0
-50 8 0
-50 12 0
51 -1 -13 0
-51 1 0
-51 13 0
52 -2 -13 0
-52 2 0
-52 13 0
53 -3 -13 0
-53 3 0
-53 13 0
54 -4 -13 0
-54 4 0
-54 13 0
55 -5 -13 0
-55 5 0
-55 13 0
56 -6 -13 0
-56 6 0
-56 13 0
57 -7 -13 0
-57 7 0
-57 13 0
58 -8 -13 0
-58 8 0
-58 13 0
59 -1 -14 0
-59 1 0
-59 14 0
60 -2 -14 0
-60 2 0
-60 14 0
61 -3 -14 0
-61 3 0
-61 14 0
62 -4 -14 0
-62 4 0
-62 14 0
63 -5 -14 0
-63 5 0
-63 14 0
64 -6 -14 0
-64 6 0
-64 14 0
65 -7 -14 0
-65 7 0
-65 14 0
66 -8 -14 0
-66 8 0
-66 14 0
67 -1 -15 0
-67 1 0
-67 15 0
68 -2 -15 0
-68 2 0
-68 15 0
69 -3 -15 0
-69 3 0
-69 15 0
70 -4 -15 0
-70 4 0
-70 15 0
71 -5 -15 0
-71 5 0
-71 15 0
72 -6 -15 0
-72 6 0
-72 15 0
73 -7 -15 0
-73 7 0
-73 15 0
74 -8 -15 0
-74 8 0
-74 15 0
75 -1 -16 0
-75 1 0
-75 16 0
76 -2 -16 0
-76 2 0
-76 16 0
77 -3 -16 0
-77 3 0
-77 16 0
78 -4 -16 0
-78 4 0
-78 16 0
79 -5 -16 0
-79 5 0
-79 16 0
80 -6 -16 0
-80 6 0
-80 16 0
81 -7 -16 0
-81 7 0
-81 16 0
82 -8 -16 0
-82 8 0
-82 16 0
19 -18 0
-19 18 0
83 -18 0
-83 18 0
147 -18 0
-147 18 0
149 -18 0
-149 18 0
187 -18 0
-187 18 0
189 -18 0
-189 18 0
191 -18 0
-191 18 0
193 -18 0
-193 18 0
195 -17 0
-195 17 0
197 -17 0
-197 17 0
199 -17 0
-199 17 0
201 -17 0
-201 17 0
203 -17 0
-203 17 0
205 -17 0
-205 17 0
207 -17 0
-207 17 0
209 -17 0
-209 17 0
211 -17 0
-211 17 0
212 -17 0
-212 17 0
214 215 216 0
8 213 -216 0
6 7 -215 0
4 5 -214 0
2 3 -213 0
218 219 220 0
16 217 -220 0
14 15 -219 0
12 13 -218 0
10 11 -217 0
28 84 221 0
-85 21 -221 0
-28 84 222 0
-85 -21 -222 0
28 -84 223 0
-85 -21 -223 0
-28 -84 224 0
-85 21 -224 0
-28 -84 225 0
85 -21 -225 0
28 -84 226 0
85 21 -226 0
-28 84 227 0
85 21 -227 0
28 84 228 0
85 -21 -228 0
29 86 229 0
-87 22 -229 0
-29 86 230 0
-87 -22 -230 0
29 -86 231 0
-87 -22 -231 0
-29 -86 232 0
-87 22 -232 0
-29 -86 233 0
87 -22 -233 0
29 -86 234 0
87 22 -234 0
-29 86 235 0
87 22 -235 0
29 86 236 0
87 -22 -236 0
30 88 237 0
-89 23 -237 0
-30 88 238 0
-89 -23 -238 0
30 -88 239 0
-89 -23 -239 0
-30 -88 240 0
-89 23 -240 0
-30 -88 241 0
89 -23 -241 0
30 -88 242 0
89 23 -242 0
-30 88 243 0
89 23 -243 0
30 88 244 0
89 -23 -244 0
31 90 245 0
-91 24 -245 0
-31 90 246 0
-91 -24 -246 0
31 -90 247 0
-91 -24 -247 0
-31 -90 248 0
-91 24 -248 0
-31 -90 249 0
91 -24 -249 0
31 -90 250 0
91 24 -250 0
-31 90 251 0
91 24 -251 0
31 90 252 0
91 -24 -252 0
32 92 253 0
-93 25 -253 0
-32 92 254 0
-93 -25 -254 0
32 -92 255 0
-93 -25 -255 0
-32 -92 256 0
-93 25 -256 0
-32 -92 257 0
93 -25 -257 0
32 -92 258 0
93 25 -258 0
-32 92 259 0
93 25 -259 0
32 92 260 0
93 -25 -260 0
33 94 261 0
-95 26 -261 0
-33 94 262 0
-95 -26 -262 0
33 -94 263 0
-95 -26 -263 0
-33 -94 264 0
-95 26 -264 0
-33 -94 265 0
95 -26 -265 0
33 -94 266 0
95 26 -266 0
-33 94 267 0
95 26 -267 0
33 94 268 0
95 -26 -268 0
44 100 269 0
-101 37 -269 0
-44 100 270 0
-101 -37 -270 0
44 -100 271 0
-101 -37 -271 0
-44 -100 272 0
-101 37 -272 0
-44 -100 273 0
101 -37 -273 0
44 -100 274 0
101 37 -274 0
-44 100 275 0
101 37 -275 0
44 100 276 0
101 -37 -276 0
45 102 277 0
-103 38 -277 0
-45 102 278 0
-103 -38 -278 0
45 -102 279 0
-103 -38 -279 0
-45 -102 280 0
-103 38 -280 0
-45 -102 281 0
103 -38 -281 0
45 -102 282 0
103 38 -282 0
-45 102 283 0
103 38 -283 0
45 102 284 0
103 -38 -284 0
46 104 285 0
-105 39 -285 0
-46 104 286 0
-105 -39 -286 0
46 -104 287 0
-105 -39 -287 0
-46 -104 288 0
-105 39 -288 0
-46 -104 289 0
105 -39 -289 0
46 -104 290 0
105 39 -290 0
-46 104 291 0
105 39 -291 0
46 104 292 0
105 -39 -292 0
47 106 293 0
-107 40 -293 0
-47 106 294 0
-107 -40 -294 0
47 -106 295 0
-107 -40 -295 0
-47 -106 296 0
-107 40 -296 0
-47 -106 297 0
107 -40 -297 0
47 -106 298 0
107 40 -298 0
-47 106 299 0
107 40 -299 0
47 106 300 0
107 -40 -300 0
48 108 301 0
-109 41 -301 0
-48 108 302 0
-109 -41 -302 0
48 -108 303 0
-109 -41 -303 0
-48 -108 304 0
-109 41 -304 0
-48 -108 305 0
109 -41 -305 0
48 -108 306 0
109 41 -306 0
-48 108 307 0
109 41 -307 0
48 108 308 0
109 -41 -308 0
49 110 309 0
-111 42 -309 0
-49 110 310 0
-111 -42 -310 0
49 -110 311 0
-111 -42 -311 0
-49 -110 312 0
-111 42 -312 0
-49 -110 313 0
111 -42 -313 0
49 -110 314 0
111 42 -314 0
-49 110 315 0
111 42 -315 0
49 110 316 0
111 -42 -316 0
60 116 317 0
-117 53 -317 0
-60 116 318 0
-117 -53 -318 0
60 -116 319 0
-117 -53 -319 0
-60 -116 320 0
-117 53 -320 0
-60 -116 321 0
117 -53 -321 0
60 -116 322 0
117 53 -322 0
-60 116 323 0
117 53 -323 0
60 116 324 0
117 -53 -324 0
61 118 325 0
-119 54 -325 0
-61 118 326 0
-119 -54 -326 0
61 -118 327 0
-119 -54 -327 0
-61 -118 328 0
-119 54 -328 0
-61 -118 329 0
119 -54 -329 0
61 -118 330 0
119 54 -330 0
-61 118 331 0
119 54 -331 0
61 118 332 0
119 -54 -332 0
62 120 333 0
-121 55 -333 0
-62 120 334 0
-121 -55 -334 0
62 -120 335 0
-121 -55 -335 0
-62 -120 336 0
-121 55 -336 0
-62 -120 337 0
121 -55 -337 0
62 -120 338 0
121 55 -338 0
-62 120 339 0
121 55 -339 0
62 120 340 0
121 -55 -340 0
63 122 341 0
-123 56 -341 0
-63 122 342 0
-123 -56 -342 0
63 -122 343 0
-123 -56 -343 0
-63 -122 344 0
-123 56 -344 0
-63 -122 345 0
123 -56 -345 0
63 -122 346 0
123 56 -346 0
-63 122 347 0
123 56 -347 0
63 122 348 0
123 -56 -348 0
64 124 349 0
-125 57 -349 0
-64 124 350 0
-125 -57 -350 0
64 -124 351 0
-125 -57 -351 0
-64 -124 352 0
-125 57 -352 0
-64 -124 353 0
125 -57 -353 0
64 -124 354 0
125 57 -354 0
-64 124 355 0
125 57 -355 0
64 124 356 0
125 -57 -356 0
65 126 357 0
-127 58 -357 0
-65 126 358 0
-127 -58 -358 0
65 -126 359 0
-127 -58 -359 0
-65 -126 360 0
-127 58 -360 0
-65 -126 361 0
127 -58 -361 0
65 -126 362 0
127 58 -362 0
-65 126 363 0
127 58 -363 0
65 126 364 0
127 -58 -364 0
76 132 365 0
-133 69 -365 0
-76 132 366 0
-133 -69 -366 0
76 -132 367 0
-133 -69 -367 0
-76 -132 368 0
-133 69 -368 0
-76 -132 369 0
133 -69 -369 0
76 -132 370 0
133 69 -370 0
-76 132 371 0
133 69 -371 0
76 132 372 0
133 -69 -372 0
77 134 373 0
-135 70 -373 0
-77 134 374 0
-135 -70 -374 0
77 -134 375 0
-135 -70 -375 0
-77 -134 376 0
-135 70 -376 0
-77 -134 377 0
135 -70 -377 0
77 -134 378 0
135 70 -378 0
-77 134 379 0
135 70 -379 0
77 134 380 0
135 -70 -380 0
78 136 381 0
-137 71 -381 0
-78 136 382 0
-137 -71 -382 0
78 -136 383 0
-137 -71 -383 0
-78 -136 384 0
-137 71 -384 0
-78 -136 385 0
137 -71 -385 0
78 -136 386 0
137 71 -386 0
-78 136 387 0
137 71 -387 0
78 136 388 0
137 -71 -388 0
79 138 389 0
-139 72 -389 0
-79 138 390 0
-139 -72 -390 0
79 -138 391 0
-139 -72 -391 0
-79 -138 392 0
-139 72 -392 0
-79 -138 393 0
139 -72 -393 0
79 -138 394 0
139 72 -394 0
-79 138 395 0
139 72 -395 0
79 138 396 0
139 -72 -396 0
80 140 397 0
-141 73 -397 0
-80 140 398 0
-141 -73 -398 0
80 -140 399 0
-141 -73 -399 0
-80 -140 400 0
-141 73 -400 0
-80 -140 401 0
141 -73 -401 0
80 -140 402 0
141 73 -402 0
-80 140 403 0
141 73 -403 0
80 140 404 0
141 -73 -404 0
81 142 405 0
-143 74 -405 0
-81 142 406 0
-143 -74 -406 0
81 -142 407 0
-143 -74 -407 0
-81 -142 408 0
-143 74 -408 0
-81 -142 409 0
143 -74 -409 0
81 -142 410 0
143 74 -410 0
-81 142 411 0
143 74 -411 0
81 142 412 0
143 -74 -412 0
99 148 413 0
-149 87 -413 0
-99 148 414 0
-149 -87 -414 0
99 -148 415 0
-149 -87 -415 0
-99 -148 416 0
-149 87 -416 0
-99 -148 417 0
149 -87 -417 0
99 -148 418 0
149 87 -418 0
-99 148 419 0
149 87 -419 0
99 148 420 0
149 -87 -420 0
101 150 421 0
-151 89 -421 0
-101 150 422 0
-151 -89 -422 0
101 -150 423 0
-151 -89 -423 0
-101 -150 424 0
-151 89 -424 0
-101 -150 425 0
151 -89 -425 0
101 -150 426 0
151 89 -426 0
-101 150 427 0
151 89 -427 0
101 150 428 0
151 -89 -428 0
103 152 429 0
-153 91 -429 0
-103 152 430 0
-153 -91 -430 0
103 -152 431 0
-153 -91 -431 0
-103 -152 432 0
-153 91 -432 0
-103 -152 433 0
153 -91 -433 0
103 -152 434 0
153 91 -434 0
-103 152 435 0
153 91 -435 0
103 152 436 0
153 -91 -436 0
105 154 437 0
-155 93 -437 0
-105 154 438 0
-155 -93 -438 0
105 -154 439 0
-155 -93 -439 0
-105 -154 440 0
-155 93 -440 0
-105 -154 441 0
155 -93 -441 0
105 -154 442 0
155 93 -442 0
-105 154 443 0
155 93 -443 0
105 154 444 0
155 -93 -444 0
107 156 445 0
-157 95 -445 0
-107 156 446 0
-157 -95 -446 0
107 -156 447 0
-157 -95 -447 0
-107 -156 448 0
-157 95 -448 0
-107 -156 449 0
157 -95 -449 0
107 -156 450 0
157 95 -450 0
-107 156 451 0
157 95 -451 0
107 156 452 0
157 -95 -452 0
109 158 453 0
-159 97 -453 0
-109 158 454 0
-159 -97 -454 0
109 -158 455 0
-159 -97 -455 0
-109 -158 456 0
-159 97 -456 0
-109 -158 457 0
159 -97 -457 0
109 -158 458 0
159 97 -458 0
-109 158 459 0
159 97 -459 0
109 158 460 0
159 -97 -460 0
111 160 461 0
-161 98 -461 0
-111 160 462 0
-161 -98 -462 0
111 -160 463 0
-161 -98 -463 0
-111 -160 464 0
-161 98 -464 0
-111 -160 465 0
161 -98 -465 0
111 -160 466 0
161 98 -466 0
-111 160 467 0
161 98 -467 0
111 160 468 0
161 -98 -468 0
131 168 469 0
-169 119 -469 0
-131 168 470 0
-169 -119 -470 0
131 -168 471 0
-169 -119 -471 0
-131 -168 472 0
-169 119 -472 0
-131 -168 473 0
169 -119 -473 0
131 -168 474 0
169 119 -474 0
-131 168 475 0
169 119 -475 0
131 168 476 0
169 -119 -476 0
133 170 477 0
-171 121 -477 0
-133 170 478 0
-171 -121 -478 0
133 -170 479 0
-171 -121 -479 0
-133 -170 480 0
-171 121 -480 0
-133 -170 481 0
171 -121 -481 0
133 -170 482 0
171 121 -482 0
-133 170 483 0
171 121 -483 0
133 170 484 0
171 -121 -484 0
135 172 485 0
-173 123 -485 0
-135 172 486 0
-173 -123 -486 0
135 -172 487 0
-173 -123 -487 0
-135 -172 488 0
-173 123 -488 0
-135 -172 489 0
173 -123 -489 0
135 -172 490 0
173 123 -490 0
-135 172 491 0
173 123 -491 0
135 172 492 0
173 -123 -492 0
137 174 493 0
-175 125 -493 0
-137 174 494 0
-175 -125 -494 0
137 -174 495 0
-175 -125 -495 0
-137 -174 496 0
-175 125 -496 0
-137 -174 497 0
175 -125 -497 0
137 -174 498 0
175 125 -498 0
-137 174 499 0
175 125 -499 0
137 174 500 0
175 -125 -500 0
139 176 501 0
-177 127 -501 0
-139 176 502 0
-177 -127 -502 0
139 -176 503 0
-177 -127 -503 0
-139 -176 504 0
-177 127 -504 0
-139 -176 505 0
177 -127 -505 0
139 -176 506 0
177 127 -506 0
-139 176 507 0
177 127 -507 0
139 176 508 0
177 -127 -508 0
141 178 509 0
-179 129 -509 0
-141 178 510 0
-179 -129 -510 0
141 -178 511 0
-179 -129 -511 0
-141 -178 512 0
-179 129 -512 0
-141 -178 513 0
179 -129 -513 0
141 -178 514 0
179 129 -514 0
-141 178 515 0
179 129 -515 0
141 178 516 0
179 -129 -516 0
143 180 517 0
-181 130 -517 0
-143 180 518 0
-181 -130 -518 0
143 -180 519 0
-181 -130 -519 0
-143 -180 520 0
-181 130 -520 0
-143 -180 521 0
181 -130 -521 0
143 -180 522 0
181 130 -522 0
-143 180 523 0
181 130 -523 0
143 180 524 0
181 -130 -524 0
115 188 525 0
-189 153 -525 0
-115 188 526 0
-189 -153 -526 0
115 -188 527 0
-189 -153 -527 0
-115 -188 528 0
-189 153 -528 0
-115 -188 529 0
189 -153 -529 0
115 -188 530 0
189 153 -530 0
-115 188 531 0
189 153 -531 0
115 188 532 0
189 -153 -532 0
167 190 533 0
-191 155 -533 0
-167 190 534 0
-191 -155 -534 0
167 -190 535 0
-191 -155 -535 0
-167 -190 536 0
-191 155 -536 0
-167 -190 537 0
191 -155 -537 0
167 -190 538 0
191 155 -538 0
-167 190 539 0
191 155 -539 0
167 190 540 0
191 -155 -540 0
169 192 541 0
-193 157 -541 0
-169 192 542 0
-193 -157 -542 0
169 -192 543 0
-193 -157 -543 0
-169 -192 544 0
-193 157 -544 0
-169 -192 545 0
193 -157 -545 0
169 -192 546 0
193 157 -546 0
-169 192 547 0
193 157 -547 0
169 192 548 0
193 -157 -548 0
171 194 549 0
-195 159 -549 0
-171 194 550 0
-195 -159 -550 0
171 -194 551 0
-195 -159 -551 0
-171 -194 552 0
-195 159 -552 0
-171 -194 553 0
195 -159 -553 0
171 -194 554 0
195 159 -554 0
-171 194 555 0
195 159 -555 0
171 194 556 0
195 -159 -556 0
173 196 557 0
-197 161 -557 0
-173 196 558 0
-197 -161 -558 0
173 -196 559 0
-197 -161 -559 0
-173 -196 560 0
-197 161 -560 0
-173 -196 561 0
197 -161 -561 0
173 -196 562 0
197 161 -562 0
-173 196 563 0
197 161 -563 0
173 196 564 0
197 -161 -564 0
175 198 565 0
-199 163 -565 0
-175 198 566 0
-199 -163 -566 0
175 -198 567 0
-199 -163 -567 0
-175 -198 568 0
-199 163 -568 0
-175 -198 569 0
199 -163 -569 0
175 -198 570 0
199 163 -570 0
-175 198 571 0
199 163 -571 0
175 198 572 0
199 -163 -572 0
177 200 573 0
-201 165 -573 0
-177 200 574 0
-201 -165 -574 0
177 -200 575 0
-201 -165 -575 0
-177 -200 576 0
-201 165 -576 0
-177 -200 577 0
201 -165 -577 0
177 -200 578 0
201 165 -578 0
-177 200 579 0
201 165 -579 0
177 200 580 0
201 -165 -580 0
179 202 581 0
-203 166 -581 0
-179 202 582 0
-203 -166 -582 0
179 -202 583 0
-203 -166 -583 0
-179 -202 584 0
-203 166 -584 0
-179 -202 585 0
203 -166 -585 0
179 -202 586 0
203 166 -586 0
-179 202 587 0
203 166 -587 0
179 202 588 0
203 -166 -588 0
